set VV := 0 1 2 3 4 5 6 7 8 9 10 11 12 13 14 15 16 17 18 19 20 21 22 23 24 25 26 27 28 29 30 31 32 33 34 35 36 37 38 39 40 41 42 43 44 45 ;
set VS := 0 1 2 3 4 5 6 7 8 9 10 11 12 13 14 15 16 17 18 19 20 21 22 23 24 25 26 27 28 29 30 31 32 33 34 35 36 37 38 39 40 41 42 43 44 45 46 47 48 49 50 51 52 53 54 55 56 57 58 59 60 61 62 63 64 65 66 67 68 69 70 71 72 73 74 75 76 77 78 79 80 81 82 83 84 85 86 87 88 89 90 91 92 93 94 95 96 ;
param cv := 
0 21
1 13
2 13
3 20
4 21
5 14
6 25
7 23
8 20
9 18
10 14
11 15
12 11
13 13
14 24
15 13
16 22
17 14
18 19
19 23
20 13
21 24
22 24
23 23
24 13
25 12
26 13
27 13
28 11
29 16
30 11
31 17
32 21
33 12
34 13
35 24
36 15
37 22
38 21
39 12
40 23
41 18
42 24
43 25
44 16
45 18
;
param cs := 
0 26
1 34
2 20
3 25
4 38
5 28
6 30
7 23
8 22
9 32
10 30
11 20
12 40
13 40
14 22
15 33
16 26
17 38
18 23
19 32
20 24
21 33
22 23
23 31
24 37
25 20
26 23
27 20
28 38
29 24
30 29
31 22
32 30
33 25
34 29
35 33
36 39
37 39
38 29
39 36
40 20
41 34
42 28
43 35
44 21
45 40
46 20
47 25
48 25
49 24
50 37
51 24
52 25
53 29
54 25
55 23
56 40
57 23
58 38
59 32
60 29
61 37
62 38
63 23
64 38
65 38
66 22
67 40
68 28
69 38
70 21
71 24
72 36
73 26
74 26
75 25
76 25
77 28
78 20
79 27
80 25
81 28
82 40
83 24
84 37
85 20
86 32
87 28
88 29
89 33
90 33
91 30
92 35
93 23
94 26
95 37
96 21
;
param bv:	 0 1 2 3 4 5 6 7 8 9 10 11 12 13 14 15 16 17 18 19 20 21 22 23 24 25 26 27 28 29 30 31 32 33 34 35 36 37 38 39 40 41 42 43 44 45 := 
		0 0 0 0 0 0 0 0 0 0 0 10 18 0 0 0 0 0 0 0 0 0 0 16 0 0 0 0 0 0 0 0 0 0 0 0 0 16 0 0 24 0 0 0 0 0 0 
		1 0 0 0 0 0 0 15 0 0 0 0 25 0 0 0 0 0 0 0 0 0 0 12 0 0 0 0 0 0 0 0 0 0 20 0 0 0 0 0 0 0 22 0 0 0 0 
		2 0 0 0 0 0 13 0 0 0 0 25 0 0 0 21 10 13 0 0 0 0 0 0 22 0 0 10 0 0 0 0 20 0 0 0 0 0 0 0 0 22 24 0 0 0 0 
		3 0 0 0 0 0 0 0 0 0 0 0 0 0 0 21 0 0 0 0 0 0 0 0 23 24 0 0 0 0 0 19 0 0 0 0 0 0 0 0 23 0 0 0 0 0 0 
		4 0 0 0 0 0 0 0 0 0 0 0 0 0 0 0 0 0 0 0 0 17 0 0 0 0 0 0 0 0 0 0 0 0 0 0 0 0 0 0 11 0 23 15 0 0 0 
		5 0 0 0 0 0 0 0 0 0 0 0 0 0 0 22 0 0 0 0 0 0 0 0 0 0 0 0 0 0 0 0 0 0 0 0 0 0 0 18 0 0 0 0 0 0 0 
		6 0 0 0 0 0 0 0 0 0 0 0 0 0 0 18 0 0 0 0 15 18 0 24 0 0 0 0 0 0 20 0 0 23 0 0 20 0 0 0 0 0 0 0 0 0 0 
		7 0 0 0 0 0 0 0 0 0 0 0 0 0 0 0 0 0 0 0 0 0 16 0 0 0 0 17 0 0 0 0 0 0 0 0 0 0 0 0 0 0 0 0 0 0 0 
		8 0 0 0 0 0 0 0 0 0 0 10 0 0 23 0 20 0 0 0 0 0 0 0 0 0 0 0 0 0 0 0 0 0 0 0 0 0 0 17 0 0 0 0 0 0 13 
		9 0 0 0 0 0 0 0 0 0 0 10 0 0 0 0 0 18 0 0 0 0 0 0 0 0 0 0 0 0 0 0 0 0 17 0 0 0 0 0 0 0 0 0 0 0 11 
		10 0 0 0 0 0 0 0 0 0 0 0 0 10 0 0 0 0 0 0 12 0 0 0 0 0 0 0 0 0 0 0 0 0 0 0 0 0 24 0 0 0 0 0 22 0 0 
		11 0 0 0 0 0 0 0 0 0 0 0 0 0 0 0 0 10 0 0 0 0 0 24 0 0 0 0 0 0 0 0 0 0 0 13 0 16 0 0 0 0 0 0 0 0 0 
		12 0 0 0 0 0 0 0 0 0 0 0 0 0 0 0 0 12 0 14 0 21 0 0 0 14 0 0 0 0 15 0 16 0 0 0 0 0 0 0 0 24 0 0 0 0 0 
		13 0 0 0 0 0 0 0 0 0 0 0 0 0 0 0 25 0 19 0 0 0 0 0 0 0 0 0 0 0 0 0 0 0 0 0 0 0 0 0 0 0 0 0 0 0 0 
		14 0 0 0 0 0 0 0 0 0 0 0 0 0 0 0 0 0 0 0 11 0 0 15 16 0 0 0 0 11 0 0 0 0 12 0 0 25 0 0 0 0 15 0 18 0 18 
		15 0 0 0 0 0 0 0 0 0 0 0 0 0 0 0 0 0 0 0 0 0 0 0 0 0 22 22 0 0 0 0 0 0 0 0 0 0 0 0 0 0 0 0 0 0 0 
		16 0 0 0 0 0 0 0 0 0 0 0 0 0 0 0 0 0 0 0 0 23 0 0 0 0 0 0 0 0 22 0 0 19 0 0 0 0 0 0 0 0 0 0 0 0 0 
		17 0 0 0 0 0 0 0 0 0 0 0 0 0 0 0 0 0 0 0 0 0 0 0 0 0 0 19 19 0 0 0 0 0 0 0 0 0 0 0 0 0 0 0 0 0 0 
		18 0 0 0 0 0 0 0 0 0 0 0 0 0 0 0 0 0 0 0 0 0 10 0 0 0 0 0 12 0 0 0 14 0 0 0 0 0 0 0 0 0 0 20 0 0 22 
		19 0 0 0 0 0 0 0 0 0 0 0 0 0 0 0 0 0 0 0 0 0 0 0 10 17 0 0 10 0 0 24 0 0 0 0 0 10 0 0 0 0 21 0 0 0 0 
		20 0 0 0 0 0 0 0 0 0 0 0 0 0 0 0 0 0 0 0 0 0 0 0 0 0 0 0 0 0 0 0 0 0 0 0 0 0 14 17 0 0 22 0 0 0 0 
		21 0 0 0 0 0 0 0 0 0 0 0 0 0 0 0 0 0 0 0 0 0 0 0 0 0 0 0 0 0 0 0 23 0 0 0 0 0 0 0 0 0 0 0 0 24 0 
		22 0 0 0 0 0 0 0 0 0 0 0 0 0 0 0 0 0 0 0 0 0 0 0 0 0 0 0 0 0 0 0 0 0 0 0 21 0 0 0 15 0 0 0 0 0 0 
		23 0 0 0 0 0 0 0 0 0 0 0 0 0 0 0 0 0 0 0 0 0 0 0 0 22 15 0 0 0 0 0 0 12 22 0 0 0 0 0 0 0 0 14 0 0 0 
		24 0 0 0 0 0 0 0 0 0 0 0 0 0 0 0 0 0 0 0 0 0 0 0 0 0 0 0 0 0 0 0 0 0 0 0 0 0 14 0 0 14 17 0 0 0 0 
		25 0 0 0 0 0 0 0 0 0 0 0 0 0 0 0 0 0 0 0 0 0 0 0 0 0 0 0 0 0 0 0 0 0 0 0 0 0 0 16 0 0 0 0 0 0 0 
		26 0 0 0 0 0 0 0 0 0 0 0 0 0 0 0 0 0 0 0 0 0 0 0 0 0 0 0 0 0 0 0 0 0 0 0 0 0 0 0 0 0 0 0 0 0 23 
		27 0 0 0 0 0 0 0 0 0 0 0 0 0 0 0 0 0 0 0 0 0 0 0 0 0 0 0 0 0 0 0 0 0 0 0 0 0 0 0 0 0 0 0 0 0 16 
		28 0 0 0 0 0 0 0 0 0 0 0 0 0 0 0 0 0 0 0 0 0 0 0 0 0 0 0 0 0 15 0 0 0 14 0 0 12 13 0 0 0 17 0 0 0 0 
		29 0 0 0 0 0 0 0 0 0 0 0 0 0 0 0 0 0 0 0 0 0 0 0 0 0 0 0 0 0 0 0 0 0 0 0 0 0 0 0 0 0 0 0 0 0 0 
		30 0 0 0 0 0 0 0 0 0 0 0 0 0 0 0 0 0 0 0 0 0 0 0 0 0 0 0 0 0 0 0 0 0 0 0 0 0 0 0 0 0 0 0 0 24 21 
		31 0 0 0 0 0 0 0 0 0 0 0 0 0 0 0 0 0 0 0 0 0 0 0 0 0 0 0 0 0 0 0 0 0 0 0 0 0 0 0 0 0 0 0 0 0 0 
		32 0 0 0 0 0 0 0 0 0 0 0 0 0 0 0 0 0 0 0 0 0 0 0 0 0 0 0 0 0 0 0 0 0 0 0 0 0 23 0 0 0 0 22 0 0 0 
		33 0 0 0 0 0 0 0 0 0 0 0 0 0 0 0 0 0 0 0 0 0 0 0 0 0 0 0 0 0 0 0 0 0 0 21 0 0 0 0 0 0 0 0 0 0 0 
		34 0 0 0 0 0 0 0 0 0 0 0 0 0 0 0 0 0 0 0 0 0 0 0 0 0 0 0 0 0 0 0 0 0 0 0 21 17 22 0 0 0 0 17 12 0 0 
		35 0 0 0 0 0 0 0 0 0 0 0 0 0 0 0 0 0 0 0 0 0 0 0 0 0 0 0 0 0 0 0 0 0 0 0 0 23 0 0 0 0 0 0 0 0 0 
		36 0 0 0 0 0 0 0 0 0 0 0 0 0 0 0 0 0 0 0 0 0 0 0 0 0 0 0 0 0 0 0 0 0 0 0 0 0 0 0 0 0 0 0 0 0 0 
		37 0 0 0 0 0 0 0 0 0 0 0 0 0 0 0 0 0 0 0 0 0 0 0 0 0 0 0 0 0 0 0 0 0 0 0 0 0 0 0 0 0 25 0 17 17 0 
		38 0 0 0 0 0 0 0 0 0 0 0 0 0 0 0 0 0 0 0 0 0 0 0 0 0 0 0 0 0 0 0 0 0 0 0 0 0 0 0 0 0 0 0 0 0 0 
		39 0 0 0 0 0 0 0 0 0 0 0 0 0 0 0 0 0 0 0 0 0 0 0 0 0 0 0 0 0 0 0 0 0 0 0 0 0 0 0 0 0 0 0 0 0 0 
		40 0 0 0 0 0 0 0 0 0 0 0 0 0 0 0 0 0 0 0 0 0 0 0 0 0 0 0 0 0 0 0 0 0 0 0 0 0 0 0 0 0 0 0 18 0 0 
		41 0 0 0 0 0 0 0 0 0 0 0 0 0 0 0 0 0 0 0 0 0 0 0 0 0 0 0 0 0 0 0 0 0 0 0 0 0 0 0 0 0 0 0 0 0 0 
		42 0 0 0 0 0 0 0 0 0 0 0 0 0 0 0 0 0 0 0 0 0 0 0 0 0 0 0 0 0 0 0 0 0 0 0 0 0 0 0 0 0 0 0 0 0 0 
		43 0 0 0 0 0 0 0 0 0 0 0 0 0 0 0 0 0 0 0 0 0 0 0 0 0 0 0 0 0 0 0 0 0 0 0 0 0 0 0 0 0 0 0 0 0 0 
		44 0 0 0 0 0 0 0 0 0 0 0 0 0 0 0 0 0 0 0 0 0 0 0 0 0 0 0 0 0 0 0 0 0 0 0 0 0 0 0 0 0 0 0 0 0 0 
		45 0 0 0 0 0 0 0 0 0 0 0 0 0 0 0 0 0 0 0 0 0 0 0 0 0 0 0 0 0 0 0 0 0 0 0 0 0 0 0 0 0 0 0 0 0 0 
;
param bs:	 0 1 2 3 4 5 6 7 8 9 10 11 12 13 14 15 16 17 18 19 20 21 22 23 24 25 26 27 28 29 30 31 32 33 34 35 36 37 38 39 40 41 42 43 44 45 46 47 48 49 50 51 52 53 54 55 56 57 58 59 60 61 62 63 64 65 66 67 68 69 70 71 72 73 74 75 76 77 78 79 80 81 82 83 84 85 86 87 88 89 90 91 92 93 94 95 96 := 
		0 0 0 0 0 0 0 23 0 0 0 0 0 0 0 0 0 0 0 0 0 0 0 0 0 0 0 22 0 0 0 0 23 0 0 21 0 0 0 0 0 0 27 0 39 0 0 25 0 0 0 0 0 0 0 0 0 25 0 0 0 0 0 29 0 0 0 0 0 0 20 0 0 0 0 0 0 0 0 0 0 21 23 0 0 0 0 0 0 0 31 0 0 0 0 0 0 0 
		1 0 0 0 0 0 0 0 0 0 0 0 0 0 0 0 0 0 0 0 0 0 0 0 0 0 0 0 0 0 0 0 0 0 0 0 0 0 34 0 0 0 0 0 0 0 0 0 0 0 24 0 0 0 0 40 0 35 0 0 0 0 0 0 0 0 0 0 0 0 0 0 0 0 38 0 0 0 0 0 0 0 0 0 0 0 0 0 0 0 34 0 29 0 0 0 0 0 
		2 0 0 0 0 0 0 0 0 0 0 0 0 0 0 0 0 0 0 0 0 36 0 0 0 0 0 39 20 0 0 0 0 0 0 0 0 38 0 40 0 0 0 0 0 0 0 23 0 0 0 0 0 0 0 35 23 25 0 0 0 0 0 0 0 22 0 0 0 0 0 0 0 0 0 0 0 0 0 0 0 0 0 0 0 0 0 0 0 0 0 0 0 23 0 0 0 40 
		3 0 0 0 0 0 0 0 0 37 0 0 29 24 0 37 0 0 0 0 36 0 0 0 0 0 28 0 0 0 0 0 0 0 0 0 23 0 38 0 0 0 0 0 0 0 0 0 0 0 0 0 0 0 0 0 0 31 25 0 0 0 0 0 0 0 29 0 0 0 0 25 0 0 0 0 24 0 0 0 26 0 0 39 0 39 0 0 0 0 0 0 0 0 0 0 0 0 
		4 0 0 0 0 0 28 0 0 0 0 0 0 0 0 0 40 0 0 0 0 0 0 0 0 0 0 0 0 0 0 0 0 0 31 0 0 0 0 0 0 0 0 0 0 0 0 0 0 0 0 0 0 0 40 0 39 0 0 0 0 0 0 0 21 0 0 37 0 0 0 0 0 0 0 0 0 0 0 0 0 0 0 0 0 0 0 0 0 0 0 0 0 0 0 0 0 0 
		5 0 0 0 0 28 0 0 37 0 32 0 0 0 0 0 0 0 0 0 0 0 0 0 0 0 0 0 0 0 0 0 0 0 0 0 0 0 0 0 0 22 22 0 0 20 0 37 0 0 0 0 0 0 0 0 0 0 0 0 0 26 0 0 24 0 0 28 0 22 0 0 0 0 0 0 0 0 0 0 0 39 0 0 0 0 0 24 0 0 0 0 0 0 0 34 21 0 
		6 23 0 0 0 0 0 0 0 0 0 0 0 0 0 0 0 0 0 0 0 0 0 0 0 37 35 0 0 0 0 0 0 0 31 32 0 0 0 0 0 0 38 33 34 0 0 39 0 0 21 0 0 0 0 0 27 0 39 0 0 0 35 32 0 0 0 0 29 0 0 0 0 0 0 0 27 0 0 0 0 0 0 0 0 0 0 0 20 0 22 0 0 0 0 0 0 0 
		7 0 0 0 0 0 37 0 0 0 0 0 24 0 0 0 0 0 0 0 0 0 0 0 0 0 0 24 0 0 0 0 0 0 0 0 0 0 0 0 0 0 0 0 0 0 0 0 0 0 0 0 0 0 0 0 0 20 0 0 0 0 0 0 0 26 0 0 0 0 0 0 0 0 0 0 0 0 0 0 0 0 0 0 0 0 0 0 0 22 0 0 0 0 0 0 0 0 
		8 0 0 0 37 0 0 0 0 0 0 0 38 0 0 0 0 0 0 0 0 0 0 0 0 0 0 0 0 0 0 0 0 0 0 0 0 32 0 0 0 0 34 36 0 0 0 0 0 0 0 0 0 0 0 0 0 0 0 0 40 0 0 0 0 0 0 0 0 0 0 0 0 0 0 0 0 0 0 0 0 0 0 0 0 0 0 0 0 0 0 0 0 0 21 21 0 0 
		9 0 0 0 0 0 32 0 0 0 0 0 0 0 0 0 0 0 0 0 0 0 0 0 0 0 0 0 0 0 0 0 33 0 0 0 0 0 0 0 0 0 0 0 0 0 0 0 0 0 22 0 0 0 0 0 0 0 0 0 0 0 0 37 0 0 0 0 0 27 22 0 0 0 0 0 0 0 0 0 0 0 0 0 0 0 0 0 0 0 0 0 0 0 0 0 0 0 
		10 0 0 0 0 0 0 0 0 0 0 0 39 0 0 0 0 0 0 0 0 0 0 0 0 0 0 0 0 0 0 0 35 38 0 21 0 0 0 0 0 0 0 0 0 0 0 0 0 0 0 0 0 0 0 0 0 0 0 0 33 0 0 0 0 0 0 0 0 0 0 0 0 0 0 0 0 0 0 0 0 0 0 0 0 0 0 0 0 0 0 0 30 0 0 0 0 0 
		11 0 0 0 29 0 0 0 24 38 0 39 0 0 31 0 0 0 0 26 0 0 39 0 37 39 35 0 0 0 0 0 0 0 0 20 0 0 0 0 0 40 0 0 0 0 0 0 0 0 0 0 0 31 0 0 0 32 0 20 0 0 0 0 0 0 0 0 0 21 0 0 0 0 0 0 23 0 0 0 0 0 21 0 0 0 0 0 0 0 24 0 0 0 27 0 0 0 
		12 0 0 0 24 0 0 0 0 0 0 0 0 0 0 0 0 0 0 0 0 0 0 0 0 31 0 0 0 0 39 0 0 0 0 0 0 0 0 0 0 0 0 0 0 0 0 37 0 0 0 0 0 35 0 0 0 0 0 0 0 0 0 0 0 0 0 0 0 0 0 0 0 0 0 0 0 0 0 34 0 0 0 0 0 0 0 0 0 0 0 37 0 0 0 0 0 0 
		13 0 0 0 0 0 0 0 0 0 0 0 31 0 0 0 0 0 0 0 0 0 0 0 0 0 0 0 0 0 0 0 0 0 0 0 40 0 0 0 0 0 0 0 0 32 0 0 0 0 0 0 0 0 0 34 0 0 0 0 0 0 0 0 0 0 0 39 0 0 0 0 26 0 0 0 0 0 0 0 0 0 0 0 0 0 0 0 0 38 0 31 30 0 0 0 0 28 
		14 0 0 0 37 0 0 0 0 0 0 0 0 0 0 0 0 0 0 0 0 0 0 0 0 0 0 0 0 0 26 0 0 0 0 0 0 0 0 0 35 0 0 0 0 0 0 23 0 0 0 0 0 0 0 0 0 0 0 0 0 0 0 0 0 0 26 0 33 0 0 0 0 0 0 0 0 0 0 0 0 0 0 40 0 0 0 20 0 0 0 0 0 0 0 0 0 0 
		15 0 0 0 0 40 0 0 0 0 0 0 0 0 0 0 0 36 0 0 0 0 0 0 0 0 0 0 0 0 0 0 0 0 0 0 0 0 0 0 0 0 35 0 0 0 0 0 0 0 0 0 0 0 0 0 0 0 0 31 0 0 0 0 0 0 0 26 0 0 0 0 0 0 0 26 0 0 20 0 0 0 0 0 0 0 0 0 38 0 0 0 0 20 0 0 0 0 
		16 0 0 0 0 0 0 0 0 0 0 0 0 0 0 0 36 0 0 0 0 0 0 0 0 0 0 0 0 0 0 0 0 0 0 0 0 24 22 0 0 0 25 0 0 38 36 38 0 0 0 0 0 0 0 26 0 0 0 0 0 0 0 0 0 0 32 0 0 0 0 0 0 0 0 0 0 0 0 0 0 0 37 0 37 0 0 0 0 0 0 0 0 0 0 0 0 0 
		17 0 0 0 0 0 0 0 0 0 0 0 0 0 0 0 0 0 0 32 30 0 0 0 0 0 27 0 0 0 0 25 0 0 0 0 0 20 0 0 33 0 0 0 0 0 0 0 0 34 0 0 40 0 0 22 0 0 0 0 0 0 0 0 0 0 0 20 0 0 0 0 0 0 0 0 0 0 0 0 0 0 0 0 27 0 0 0 0 0 0 37 0 0 0 0 0 0 
		18 0 0 0 0 0 0 0 0 0 0 0 26 0 0 0 0 0 32 0 0 0 33 0 0 0 0 0 0 0 0 0 0 0 0 0 0 0 21 22 26 0 0 0 0 32 0 0 38 20 0 0 0 0 0 0 0 29 0 0 0 0 0 0 0 23 24 28 0 0 0 0 0 0 30 0 36 0 0 0 0 0 0 0 0 0 0 0 35 0 0 0 35 24 0 0 32 0 
		19 0 0 0 36 0 0 0 0 0 0 0 0 0 0 0 0 0 30 0 0 0 0 0 0 0 0 0 0 0 0 0 0 0 0 0 27 0 21 28 0 0 0 0 29 0 0 0 0 0 0 0 29 0 0 0 0 0 0 0 0 0 0 30 0 0 0 0 0 38 0 0 0 0 0 0 24 0 0 0 0 0 25 0 39 0 0 0 0 0 21 0 0 0 0 0 31 20 
		20 0 0 36 0 0 0 0 0 0 0 0 0 0 0 0 0 0 0 0 0 0 0 0 0 0 0 0 0 0 0 37 0 0 0 31 0 0 0 0 0 0 0 0 0 0 0 0 0 0 0 0 0 0 0 30 0 33 0 0 0 0 0 32 0 0 0 0 0 0 0 0 0 0 0 0 0 25 0 0 0 0 0 0 0 0 0 30 0 0 0 0 0 0 0 0 0 0 
		21 0 0 0 0 0 0 0 0 0 0 0 39 0 0 0 0 0 0 33 0 0 0 30 0 0 34 0 36 0 0 0 0 0 0 0 0 0 0 0 0 0 0 0 0 0 0 0 0 0 30 0 0 0 38 0 0 0 0 0 0 0 0 20 0 23 0 0 0 0 0 0 0 0 28 0 0 0 0 0 0 34 0 0 0 0 0 0 0 0 0 0 23 0 0 0 0 0 
		22 0 0 0 0 0 0 0 0 0 0 0 0 0 0 0 0 0 0 0 0 0 30 0 0 0 0 0 0 0 0 0 0 0 0 0 0 0 0 0 0 0 0 0 0 0 0 0 0 0 0 0 0 0 0 0 0 0 0 0 0 40 0 0 0 36 0 0 0 0 0 0 0 0 0 33 0 0 0 0 0 0 0 0 0 0 0 0 28 0 0 0 0 0 0 0 0 0 
		23 0 0 0 0 0 0 0 0 0 0 0 37 0 0 0 0 0 0 0 0 0 0 0 0 0 0 0 0 37 0 0 0 0 0 0 0 0 0 26 40 0 0 0 0 0 35 0 0 0 0 0 0 0 0 0 0 0 0 0 34 0 0 0 21 0 27 0 0 0 0 0 0 0 0 0 27 0 0 0 0 0 0 0 24 0 0 0 0 0 0 0 24 0 0 0 37 0 
		24 0 0 0 0 0 0 37 0 0 0 0 39 31 0 0 0 0 0 0 0 0 0 0 0 0 0 0 0 0 0 0 0 26 0 39 29 0 0 0 0 0 0 34 0 0 0 39 0 0 0 0 0 0 0 0 0 0 0 0 23 0 0 0 0 0 0 0 0 0 40 0 0 0 0 0 0 0 0 0 0 0 0 0 0 0 0 0 0 0 0 0 0 0 28 0 0 0 
		25 0 0 0 28 0 0 35 0 0 0 0 35 0 0 0 0 0 27 0 0 0 34 0 0 0 0 0 0 0 0 0 0 0 28 0 29 27 0 0 0 37 0 0 0 0 0 36 23 0 0 0 0 0 0 21 40 0 0 0 0 33 0 0 0 21 0 0 0 0 0 0 0 0 0 0 0 0 0 0 0 0 0 0 23 0 0 0 23 0 0 0 0 0 34 0 0 30 
		26 22 0 39 0 0 0 0 24 0 0 0 0 0 0 0 0 0 0 0 0 0 0 0 0 0 0 0 0 0 0 0 0 0 0 33 0 0 0 0 0 0 0 24 0 0 0 0 0 0 36 0 0 0 0 0 0 26 0 0 0 0 0 0 0 0 0 0 0 0 0 0 0 0 36 0 0 0 0 0 0 0 38 0 0 0 34 0 0 0 0 0 0 0 0 0 0 0 
		27 0 0 20 0 0 0 0 0 0 0 0 0 0 0 0 0 0 0 0 0 0 36 0 0 0 0 0 0 0 0 0 0 0 0 0 0 0 23 0 0 0 0 0 0 0 0 0 33 0 0 0 0 0 0 0 0 0 0 0 0 22 0 0 0 29 38 0 0 0 0 0 0 0 32 0 21 0 0 0 0 0 0 0 0 0 0 0 0 0 0 0 0 0 0 0 0 35 
		28 0 0 0 0 0 0 0 0 0 0 0 0 0 0 0 0 0 0 0 0 0 0 0 37 0 0 0 0 0 0 0 0 0 25 0 0 0 37 0 0 0 0 0 0 0 0 0 0 0 0 0 0 0 0 0 0 0 0 0 0 0 0 0 0 0 23 0 0 0 0 0 0 0 0 0 0 0 0 0 0 0 0 0 0 0 0 0 0 0 0 0 40 0 0 0 0 0 
		29 0 0 0 0 0 0 0 0 0 0 0 0 39 0 26 0 0 0 0 0 0 0 0 0 0 0 0 0 0 0 0 0 0 0 0 0 0 0 0 0 0 0 0 0 0 0 0 0 0 0 0 0 0 0 0 0 0 0 0 0 0 0 0 0 0 0 0 0 0 0 0 0 0 0 0 0 0 0 0 0 0 0 28 0 0 0 0 0 0 0 0 0 0 0 0 0 0 
		30 0 0 0 0 0 0 0 0 0 0 0 0 0 0 0 0 0 25 0 0 37 0 0 0 0 0 0 0 0 0 0 0 0 0 0 0 0 0 0 0 27 0 0 0 0 0 0 0 0 0 0 29 0 0 0 0 0 0 0 0 0 0 0 0 0 0 0 0 0 0 0 0 0 0 0 0 0 0 0 0 0 0 0 0 0 0 0 0 0 0 0 0 0 0 0 0 0 
		31 23 0 0 0 0 0 0 0 0 33 35 0 0 0 0 0 0 0 0 0 0 0 0 0 0 0 0 0 0 0 0 0 0 0 0 0 34 0 0 0 0 0 0 38 0 0 0 0 0 0 0 0 0 0 0 0 0 0 0 0 0 0 0 0 0 0 0 0 0 24 0 0 37 0 0 0 0 0 0 0 0 0 0 0 0 26 0 0 0 0 0 33 0 37 0 0 0 
		32 0 0 0 0 0 0 0 0 0 0 38 0 0 0 0 0 0 0 0 0 0 0 0 0 26 0 0 0 0 0 0 0 0 0 0 0 0 0 0 0 0 0 0 0 0 0 0 0 0 0 0 0 0 0 0 0 0 0 0 0 0 32 0 0 25 0 0 0 0 38 0 0 0 0 0 0 0 0 0 0 0 0 0 0 0 0 33 0 0 29 0 0 33 0 0 0 0 
		33 0 0 0 0 31 0 31 0 0 0 0 0 0 0 0 0 0 0 0 0 0 0 0 0 0 28 0 0 25 0 0 0 0 0 0 0 0 0 0 0 0 0 0 0 0 0 0 0 0 0 0 0 0 0 0 0 0 0 0 0 0 0 0 26 0 20 0 0 0 20 26 0 0 0 0 0 0 0 0 0 33 0 0 0 0 0 0 0 0 0 0 0 0 0 0 0 0 
		34 21 0 0 0 0 0 32 0 0 0 21 20 0 0 0 0 0 0 0 0 31 0 0 0 39 0 33 0 0 0 0 0 0 0 0 0 0 0 0 0 34 0 0 0 0 0 0 0 0 35 0 0 0 26 0 0 0 0 0 33 0 0 0 0 0 0 0 0 35 0 0 0 0 0 0 0 0 0 0 0 0 0 0 0 0 0 31 0 0 0 31 0 0 23 0 0 0 
		35 0 0 0 23 0 0 0 0 0 0 0 0 0 40 0 0 0 0 0 27 0 0 0 0 29 29 0 0 0 0 0 0 0 0 0 0 0 0 0 0 0 23 0 0 0 0 0 0 0 0 0 0 0 0 0 0 0 0 0 0 0 0 0 0 0 0 24 0 0 31 0 0 0 30 0 0 0 26 0 0 0 0 0 0 0 0 0 0 0 0 0 23 30 0 40 0 0 
		36 0 0 38 0 0 0 0 0 32 0 0 0 0 0 0 0 24 20 0 0 0 0 0 0 0 27 0 0 0 0 0 34 0 0 0 0 0 0 0 0 0 0 0 0 0 0 0 0 0 0 0 39 0 0 0 0 25 37 28 0 20 0 0 0 0 0 23 0 0 0 0 0 0 0 0 0 0 0 0 0 0 0 0 0 0 0 0 0 0 0 0 28 0 0 0 24 0 
		37 0 34 0 38 0 0 0 0 0 0 0 0 0 0 0 0 22 0 21 21 0 0 0 0 0 0 0 23 37 0 0 0 0 0 0 0 0 0 25 0 0 0 0 0 0 0 0 0 0 0 31 0 0 0 0 0 0 0 38 0 0 0 0 0 0 34 0 0 0 0 0 0 39 0 0 0 0 0 0 32 0 0 0 0 0 0 0 0 0 0 0 0 37 0 0 0 0 
		38 0 0 40 0 0 0 0 0 0 0 0 0 0 0 0 0 0 0 22 28 0 0 0 26 0 0 0 0 0 0 0 0 0 0 0 0 0 25 0 0 0 39 0 0 0 0 0 0 0 0 0 0 0 0 0 0 0 0 0 0 0 0 0 0 0 0 0 0 0 0 0 0 0 0 0 0 0 0 0 0 0 0 0 0 0 0 0 0 0 0 0 27 0 0 0 0 0 
		39 0 0 0 0 0 0 0 0 0 0 0 0 0 0 35 0 0 33 26 0 0 0 0 40 0 0 0 0 0 0 0 0 0 0 0 0 0 0 0 0 0 0 0 0 0 0 0 0 0 32 0 0 0 0 0 0 0 0 0 0 25 0 36 0 27 0 0 22 0 0 0 0 25 0 0 22 0 22 0 0 0 0 40 0 0 0 27 0 25 36 0 0 0 0 0 0 0 
		40 0 0 0 0 0 22 0 0 0 0 0 40 0 0 0 0 0 0 0 0 0 0 0 0 0 37 0 0 0 0 27 0 0 0 34 0 0 0 0 0 0 33 36 22 0 0 0 0 0 33 0 0 0 20 0 27 29 0 0 0 0 0 0 0 0 0 0 0 0 0 0 0 0 0 0 0 0 0 0 0 0 0 24 27 0 0 0 0 0 0 0 0 0 20 28 0 0 
		41 27 0 0 0 0 22 38 0 34 0 0 0 0 0 0 35 25 0 0 0 0 0 0 0 0 0 0 0 0 0 0 0 0 0 0 23 0 0 39 0 33 0 0 0 0 0 0 0 0 0 0 0 37 0 0 0 0 30 0 0 0 0 29 0 0 29 0 22 0 0 0 0 0 0 30 0 0 0 0 0 0 0 0 0 38 0 0 0 0 0 0 0 0 0 0 0 0 
		42 0 0 0 0 0 0 33 0 36 0 0 0 0 0 0 0 0 0 0 0 0 0 0 0 34 0 24 0 0 0 0 0 0 0 0 0 0 0 0 0 36 0 0 0 0 0 0 0 0 28 0 35 0 0 0 0 0 0 0 0 0 0 0 0 0 0 0 0 20 30 0 0 0 0 0 0 0 0 0 0 0 0 0 40 0 0 0 0 0 0 0 0 0 0 0 0 0 
		43 39 0 0 0 0 0 34 0 0 0 0 0 0 0 0 0 0 0 0 29 0 0 0 0 0 0 0 0 0 0 0 38 0 0 0 0 0 0 0 0 22 0 0 0 0 0 0 0 0 0 0 0 26 0 0 22 0 0 0 0 0 31 0 0 0 0 0 0 21 36 0 0 0 0 0 0 0 0 0 33 0 0 0 0 0 22 23 0 30 0 0 0 0 35 0 0 0 
		44 0 0 0 0 0 20 0 0 0 0 0 0 0 32 0 0 38 0 32 0 0 0 0 0 0 0 0 0 0 0 0 0 0 0 0 0 0 0 0 0 0 0 0 0 0 34 0 0 0 0 0 0 0 0 0 0 0 0 0 26 0 0 0 0 0 25 0 0 0 0 0 21 0 0 0 0 0 34 0 0 0 0 0 0 0 0 0 0 0 29 0 0 0 0 0 0 0 
		45 0 0 0 0 0 0 0 0 0 0 0 0 0 0 0 0 36 0 0 0 0 0 0 35 0 0 0 0 0 0 0 0 0 0 0 0 0 0 0 0 0 0 0 0 34 0 0 0 0 0 0 0 0 0 0 0 0 0 0 35 0 0 0 0 0 0 0 37 0 0 0 0 0 0 0 0 0 0 0 0 0 0 0 31 0 0 0 0 0 0 0 0 0 0 0 0 0 
		46 25 0 23 0 0 37 39 0 0 0 0 0 37 0 23 0 38 0 0 0 0 0 0 0 39 36 0 0 0 0 0 0 0 0 0 0 0 0 0 0 0 0 0 0 0 0 0 0 0 0 0 0 0 0 0 0 0 0 0 0 0 0 0 0 0 0 35 0 0 0 0 0 0 0 0 0 21 0 0 0 0 0 23 0 0 0 0 0 0 0 0 0 31 0 0 0 0 
		47 0 0 0 0 0 0 0 0 0 0 0 0 0 0 0 0 0 0 38 0 0 0 0 0 0 23 0 33 0 0 0 0 0 0 0 0 0 0 0 0 0 0 0 0 0 0 0 0 0 0 0 0 31 0 35 37 0 0 0 0 29 0 0 0 0 0 23 0 0 0 0 0 0 0 33 0 0 0 0 0 0 0 0 0 0 0 0 0 0 0 0 0 0 0 0 0 0 
		48 0 0 0 0 0 0 0 0 0 0 0 0 0 0 0 0 0 34 20 0 0 0 0 0 0 0 0 0 0 0 0 0 0 0 0 0 0 0 0 0 0 0 0 0 0 0 0 0 0 0 0 0 0 0 0 0 0 0 0 0 0 0 23 0 0 0 0 0 0 0 0 0 0 0 0 0 0 0 0 0 0 0 0 23 0 0 0 0 0 0 0 0 0 0 0 0 37 
		49 0 24 0 0 0 0 21 0 0 22 0 0 0 0 0 0 0 0 0 0 0 30 0 0 0 0 36 0 0 0 0 0 0 0 35 0 0 0 0 32 33 0 28 0 0 0 0 0 0 0 0 0 0 23 0 0 0 0 0 39 0 0 23 0 36 0 0 0 0 0 0 0 0 0 0 0 0 0 0 0 0 34 0 0 0 0 0 0 0 0 0 0 0 28 26 0 0 
		50 0 0 0 0 0 0 0 0 0 0 0 0 0 0 0 0 0 0 0 0 0 0 0 0 0 0 0 0 0 0 0 0 0 0 0 0 0 31 0 0 0 0 0 0 0 0 0 0 0 0 0 31 0 0 31 0 0 0 0 0 0 0 0 0 0 0 0 0 0 0 24 36 0 0 31 0 0 0 24 0 0 0 0 0 0 0 23 35 0 0 0 0 0 0 0 0 0 
		51 0 0 0 0 0 0 0 0 0 0 0 0 0 0 0 0 0 40 0 29 0 0 0 0 0 0 0 0 0 0 29 0 0 0 0 0 39 0 0 0 0 0 35 0 0 0 0 0 0 0 31 0 0 0 0 0 0 0 0 0 0 0 0 0 0 0 0 0 0 0 0 0 0 0 0 0 0 0 0 0 0 0 0 0 0 0 21 0 0 26 0 0 0 0 24 0 0 
		52 0 0 0 0 0 0 0 0 0 0 0 31 35 0 0 0 0 0 0 0 0 0 0 0 0 0 0 0 0 0 0 0 0 0 0 0 0 0 0 0 0 37 0 26 0 0 0 31 0 0 0 0 0 0 28 0 29 0 0 0 0 0 0 0 0 0 0 0 0 0 0 0 33 0 0 0 0 0 0 23 0 34 0 0 0 0 25 0 22 0 0 0 0 33 35 0 0 
		53 0 0 0 0 40 0 0 0 0 0 0 0 0 0 0 0 0 0 0 0 0 38 0 0 0 0 0 0 0 0 0 0 0 0 26 0 0 0 0 0 20 0 0 0 0 0 0 0 0 23 0 0 0 0 0 0 0 37 0 0 0 0 0 0 0 0 0 0 0 0 0 0 0 0 0 0 22 0 0 0 0 0 34 0 0 0 0 0 0 0 40 0 0 0 39 0 0 
		54 0 40 35 0 0 0 0 0 0 0 0 0 0 34 0 0 26 22 0 0 30 0 0 0 0 21 0 0 0 0 0 0 0 0 0 0 0 0 0 0 0 0 0 0 0 0 0 35 0 0 31 0 28 0 0 0 0 0 36 0 0 0 0 0 0 0 33 0 0 0 0 0 0 22 0 0 20 0 0 0 0 0 0 24 32 0 0 0 0 0 0 0 30 0 0 26 0 
		55 0 0 23 0 39 0 27 0 0 0 0 0 0 0 0 0 0 0 0 0 0 0 0 0 0 40 0 0 0 0 0 0 0 0 0 0 0 0 0 0 27 0 0 22 0 0 0 37 0 0 0 0 0 0 0 0 0 0 0 0 0 0 38 0 0 0 31 0 0 0 0 0 0 26 0 0 0 0 0 0 0 0 0 24 0 0 0 0 0 31 0 0 0 0 0 0 21 
		56 25 35 25 31 0 0 0 20 0 0 0 32 0 0 0 0 0 0 29 0 33 0 0 0 0 0 26 0 0 0 0 0 0 0 0 0 25 0 0 0 29 0 0 0 0 0 0 0 0 0 0 0 29 0 0 0 0 0 0 0 0 24 34 0 0 0 0 0 0 0 0 0 0 0 0 0 0 0 0 0 0 39 0 0 0 22 0 0 31 0 0 0 0 0 0 0 0 
		57 0 0 0 25 0 0 39 0 0 0 0 0 0 0 0 0 0 0 0 0 0 0 0 0 0 0 0 0 0 0 0 0 0 0 0 0 37 0 0 0 0 30 0 0 0 0 0 0 0 0 0 0 0 37 0 0 0 0 0 40 36 0 0 0 0 0 0 23 0 0 0 0 0 0 0 0 0 0 0 0 0 0 29 0 0 0 27 0 0 0 0 0 0 0 0 0 0 
		58 0 0 0 0 0 0 0 0 0 0 0 20 0 0 0 31 0 0 0 0 0 0 0 0 0 0 0 0 0 0 0 0 0 0 0 0 28 38 0 0 0 0 0 0 0 0 0 0 0 0 0 0 0 0 36 0 0 0 0 0 0 0 0 0 0 0 35 0 0 32 0 0 0 0 0 0 0 0 0 0 28 0 0 32 0 0 20 25 0 0 0 0 0 29 0 0 0 
		59 0 0 0 0 0 0 0 0 40 0 33 0 0 0 0 0 0 0 0 0 0 0 0 34 23 0 0 0 0 0 0 0 0 0 33 0 0 0 0 0 0 0 0 0 26 35 0 0 0 39 0 0 0 0 0 0 0 40 0 0 29 0 0 0 0 0 0 0 0 0 20 0 0 0 0 0 0 0 0 0 0 0 0 0 0 0 0 0 0 0 0 0 0 0 0 0 0 
		60 0 0 0 0 0 26 0 0 0 0 0 0 0 0 0 0 0 0 0 0 0 0 40 0 0 33 0 22 0 0 0 0 0 0 0 0 20 0 0 25 0 0 0 0 0 0 0 29 0 0 0 0 0 0 0 0 0 36 0 29 0 0 0 0 0 0 0 0 39 0 0 0 0 0 22 0 0 0 0 0 0 0 0 0 0 0 0 0 0 0 0 0 0 0 0 0 0 
		61 0 0 0 0 0 0 35 0 0 0 0 0 0 0 0 0 0 0 0 0 0 0 0 0 0 0 0 0 0 0 0 0 32 0 0 0 0 0 0 0 0 0 0 31 0 0 0 0 0 0 0 0 0 0 0 0 24 0 0 0 0 0 0 0 0 0 0 0 26 0 0 0 22 0 0 0 0 0 0 0 0 0 40 0 0 24 0 0 0 0 0 0 0 20 22 0 0 
		62 29 0 0 0 0 0 32 0 0 37 0 0 0 0 0 0 0 0 0 30 32 20 0 0 0 0 0 0 0 0 0 0 0 0 0 0 0 0 0 36 0 29 0 0 0 0 0 0 23 23 0 0 0 0 0 38 34 0 0 0 0 0 0 0 0 0 30 0 0 23 0 0 0 0 0 0 0 0 0 40 28 0 0 37 0 0 33 0 0 0 0 0 0 0 0 0 38 
		63 0 0 0 0 21 24 0 0 0 0 0 0 0 0 0 0 0 0 0 0 0 0 0 21 0 0 0 0 0 0 0 0 0 26 0 0 0 0 0 0 0 0 0 0 0 0 0 0 0 0 0 0 0 0 0 0 0 0 0 0 0 0 0 0 0 0 0 0 0 0 0 32 0 0 0 0 0 0 0 0 0 0 0 0 0 0 0 0 0 0 0 0 0 0 0 0 0 
		64 0 0 22 0 0 0 0 26 0 0 0 0 0 0 0 0 0 0 23 0 0 23 36 0 0 21 0 29 0 0 0 0 25 0 0 0 0 0 0 27 0 0 0 0 0 0 0 0 0 36 0 0 0 0 0 0 0 0 0 0 0 0 0 0 0 0 0 0 0 21 0 0 27 0 0 0 0 0 0 0 0 0 22 0 0 0 0 0 0 0 0 40 0 0 0 0 27 
		65 0 0 0 29 0 0 0 0 0 0 0 0 0 0 26 0 32 0 24 0 0 0 0 27 0 0 0 38 23 0 0 0 0 20 0 0 0 34 0 0 0 29 0 0 25 0 0 0 0 0 0 0 0 0 0 0 0 0 0 0 0 0 0 0 0 0 0 0 0 0 0 33 0 0 0 0 34 0 0 0 0 0 0 26 0 0 0 37 0 0 0 0 0 0 0 24 0 
		66 0 0 0 0 37 28 0 0 0 0 0 0 0 39 0 26 0 20 28 0 0 0 0 0 0 0 0 0 0 0 0 0 0 0 0 24 23 0 0 0 0 0 0 0 0 0 35 23 0 0 0 0 0 0 33 31 0 0 35 0 0 0 30 0 0 0 0 0 0 0 0 0 0 0 0 28 26 0 0 0 0 0 0 0 0 0 0 0 0 0 0 0 0 0 32 0 0 
		67 0 0 0 0 0 0 29 0 0 0 0 0 0 0 33 0 0 0 0 0 0 0 0 0 0 0 0 0 0 0 0 0 0 0 0 0 0 0 0 22 0 22 0 0 0 37 0 0 0 0 0 0 0 0 0 0 0 23 0 0 0 0 0 0 0 0 0 0 34 0 0 0 0 0 0 21 0 0 0 0 0 0 0 32 0 0 0 0 0 0 0 25 0 0 0 0 0 
		68 0 0 0 0 0 22 0 0 0 27 0 21 0 0 0 0 0 0 0 38 0 0 0 0 0 0 0 0 0 0 0 0 0 0 35 0 0 0 0 0 0 0 20 21 0 0 0 0 0 0 0 0 0 0 0 0 0 0 0 0 39 26 0 0 0 0 0 34 0 0 0 0 34 0 0 0 0 0 0 0 0 20 0 39 0 0 0 0 0 0 0 0 0 39 0 0 0 
		69 20 0 0 0 0 0 0 0 0 22 0 0 0 0 0 0 0 0 0 0 0 0 0 0 40 0 0 0 0 0 0 24 38 20 0 31 0 0 0 0 0 0 30 36 0 0 0 0 0 0 0 0 0 0 0 0 0 0 32 0 0 0 23 0 21 0 0 0 0 0 0 0 0 0 0 0 0 0 0 0 0 0 0 0 0 0 0 0 0 0 0 0 21 0 31 29 0 
		70 0 0 0 25 0 0 0 0 0 0 0 0 0 0 0 0 0 0 0 0 0 0 0 0 0 0 0 0 0 0 0 0 0 26 0 0 0 0 0 0 0 0 0 0 0 0 0 0 0 0 24 0 0 0 0 0 0 0 0 20 0 0 0 0 0 0 0 0 0 0 0 26 0 0 0 0 0 0 0 0 0 0 0 0 0 0 0 0 0 0 0 0 0 0 0 0 0 
		71 0 0 0 0 0 0 0 0 0 0 0 0 0 26 0 0 0 0 0 0 0 0 0 0 0 0 0 0 0 0 0 0 0 0 0 0 0 0 0 0 0 0 0 0 21 0 0 0 0 0 36 0 0 0 0 0 0 0 0 0 0 0 0 32 0 33 0 0 0 0 26 0 0 0 0 0 0 0 0 0 23 0 0 0 0 0 32 0 0 0 0 0 0 0 0 0 0 
		72 0 0 0 0 0 0 0 0 0 0 0 0 0 0 0 0 0 0 0 0 0 0 0 0 0 0 0 0 0 0 0 37 0 0 0 0 0 39 0 25 0 0 0 0 0 0 0 0 0 0 0 0 33 0 0 0 0 0 0 0 0 22 0 0 27 0 0 0 34 0 0 0 0 0 0 0 0 0 34 0 0 0 0 0 0 0 32 0 0 0 0 0 20 0 0 0 0 
		73 0 38 0 0 0 0 0 0 0 0 0 0 0 0 0 0 0 0 30 0 0 28 0 0 0 0 36 32 0 0 0 0 0 0 0 30 0 0 0 0 0 0 0 0 0 0 0 0 0 0 0 0 0 0 22 26 0 0 0 0 0 0 0 0 0 0 0 0 0 0 0 0 0 0 0 0 0 0 27 0 39 0 31 0 0 0 0 0 0 0 0 26 0 0 0 0 33 
		74 0 0 0 0 0 0 0 0 0 0 0 0 0 0 0 26 0 0 0 0 0 0 33 0 0 0 0 0 0 0 0 0 0 0 0 0 0 0 0 0 0 30 0 0 0 0 0 33 0 0 31 0 0 0 0 0 0 0 0 0 22 0 0 0 0 0 0 0 0 0 0 0 0 0 0 0 0 0 0 0 0 0 0 0 0 0 0 26 0 30 0 0 0 0 0 0 0 
		75 0 0 0 24 0 0 27 0 0 0 0 23 0 0 0 0 0 0 36 24 0 0 0 27 0 0 0 21 0 0 0 0 0 0 0 0 0 0 0 22 0 0 0 0 0 0 0 0 0 0 0 0 0 0 0 0 0 0 0 0 0 0 0 0 0 0 28 21 0 0 0 0 0 0 0 0 0 0 0 0 0 33 0 21 0 0 0 0 0 21 0 0 36 0 26 0 0 
		76 0 0 0 0 0 0 0 0 0 0 0 0 0 0 0 0 0 0 0 0 25 0 0 0 0 0 0 0 0 0 0 0 0 0 0 0 0 0 0 0 0 0 0 0 0 0 21 0 0 0 0 0 0 22 20 0 0 0 0 0 0 0 0 0 0 34 26 0 0 0 0 0 0 0 0 0 0 0 0 0 28 0 0 0 0 33 0 0 0 0 0 0 0 0 0 0 21 
		77 0 0 0 0 0 0 0 0 0 0 0 0 0 0 0 20 0 0 0 0 0 0 0 0 0 0 0 0 0 0 0 0 0 0 0 26 0 0 0 22 0 0 0 0 34 0 0 0 0 0 0 0 0 0 0 0 0 0 0 0 0 0 0 0 0 0 0 0 0 0 0 0 0 0 0 0 0 0 38 0 0 0 0 0 0 0 0 28 0 0 0 0 0 0 0 0 0 
		78 0 0 0 0 0 0 0 0 0 0 0 0 34 0 0 0 0 0 0 0 0 0 0 0 0 0 0 0 0 0 0 0 0 0 0 0 0 0 0 0 0 0 0 0 0 0 0 0 0 0 24 0 0 0 0 0 0 0 0 0 0 0 0 0 0 0 0 0 0 0 0 0 34 27 0 0 0 38 0 0 39 0 0 0 0 0 0 0 0 0 0 0 0 0 0 20 0 
		79 0 0 0 26 0 0 0 0 0 0 0 0 0 0 0 0 0 0 0 0 0 0 0 0 0 0 0 0 0 0 0 0 0 0 0 0 0 32 0 0 0 0 0 33 0 0 0 0 0 0 0 0 23 0 0 0 0 0 0 0 0 0 40 0 0 0 0 0 0 0 0 0 0 0 0 0 0 0 0 0 0 0 0 0 0 0 0 0 0 0 0 0 0 0 0 0 20 
		80 21 0 0 0 0 39 0 0 0 0 0 0 0 0 0 0 0 0 0 0 0 34 0 0 0 0 0 0 0 0 0 0 0 33 0 0 0 0 0 0 0 0 0 0 0 0 0 0 0 0 0 0 0 0 0 0 0 0 28 0 0 0 28 0 0 0 0 0 0 0 0 23 0 39 0 0 28 0 39 0 0 0 0 0 0 0 0 0 0 0 0 0 0 0 0 0 0 
		81 23 0 0 0 0 0 0 0 0 0 0 21 0 0 0 0 37 0 0 25 0 0 0 0 0 0 38 0 0 0 0 0 0 0 0 0 0 0 0 0 0 0 0 0 0 0 0 0 0 34 0 0 34 0 0 0 39 0 0 0 0 0 0 0 0 0 0 0 20 0 0 0 0 0 0 33 0 0 0 0 0 0 0 26 0 0 0 21 0 0 0 0 0 0 0 0 0 
		82 0 0 0 39 0 0 0 0 0 0 0 0 0 0 40 0 0 0 0 0 0 0 0 0 0 0 0 0 0 28 0 0 0 0 0 0 0 0 0 40 24 0 0 0 0 0 23 0 0 0 0 0 0 34 0 0 0 29 0 0 0 40 0 0 22 0 0 0 0 0 0 0 0 31 0 0 0 0 0 0 0 0 0 28 0 0 0 0 0 0 0 0 0 25 0 0 0 
		83 0 0 0 0 0 0 0 0 0 0 0 0 0 0 0 0 37 27 0 39 0 0 0 24 0 23 0 0 0 0 0 0 0 0 0 0 0 0 0 0 27 0 40 0 0 31 0 0 23 0 0 0 0 0 24 24 0 0 32 0 0 0 37 0 0 26 0 32 39 0 0 0 0 0 0 21 0 0 0 0 0 26 28 0 0 0 0 0 0 0 0 0 0 0 0 0 0 
		84 0 0 0 39 0 0 0 0 0 0 0 0 0 0 0 0 0 0 0 0 0 0 0 0 0 0 0 0 0 0 0 0 0 0 0 0 0 0 0 0 0 38 0 0 0 0 0 0 0 0 0 0 0 0 32 0 0 0 0 0 0 0 0 0 0 0 0 0 0 0 0 0 0 0 0 0 0 0 0 0 0 0 0 0 0 0 0 0 0 0 0 0 0 0 0 0 0 
		85 0 0 0 0 0 0 0 0 0 0 0 0 0 0 0 0 0 0 0 0 0 0 0 0 0 0 34 0 0 0 0 26 0 0 0 0 0 0 0 0 0 0 0 22 0 0 0 0 0 0 0 0 0 0 0 0 22 0 0 0 0 24 0 0 0 0 0 0 0 0 0 0 0 0 0 0 33 0 0 0 0 0 0 0 0 0 0 0 0 0 0 0 0 0 0 0 0 
		86 0 0 0 0 0 24 0 0 0 0 0 0 0 0 20 0 0 0 0 0 30 0 0 0 0 0 0 0 0 0 0 0 33 0 31 0 0 0 0 27 0 0 0 23 0 0 0 0 0 0 23 21 25 0 0 0 0 27 20 0 0 0 33 0 0 0 0 0 0 0 0 32 32 0 0 0 0 0 0 0 0 0 0 0 0 0 0 0 0 25 0 0 0 32 0 35 0 
		87 0 0 0 0 0 0 20 0 0 0 0 0 0 0 0 38 0 0 35 0 0 0 28 0 0 23 0 0 0 0 0 0 0 0 0 0 0 0 0 0 0 0 0 0 0 0 0 0 0 0 35 0 0 0 0 0 0 0 25 0 0 0 0 0 0 37 0 0 0 0 0 0 0 0 26 0 0 28 0 0 0 21 0 0 0 0 0 0 0 22 0 0 0 0 0 0 0 
		88 0 0 0 0 0 0 0 22 0 0 0 0 0 38 0 0 0 0 0 0 0 0 0 0 0 0 0 0 0 0 0 0 0 0 0 0 0 0 0 25 0 0 0 30 0 0 0 0 0 0 0 0 22 0 0 0 31 0 0 0 0 0 0 0 0 0 0 0 0 0 0 0 0 0 0 0 0 0 0 0 0 0 0 0 0 0 0 0 0 0 0 0 0 30 0 0 0 
		89 31 34 0 0 0 0 22 0 0 0 0 24 0 0 0 0 0 0 0 21 0 0 0 0 0 0 0 0 0 0 0 0 29 0 0 0 0 0 0 36 0 0 0 0 29 0 0 0 0 0 0 26 0 0 0 31 0 0 0 0 0 0 0 0 0 0 0 0 0 0 0 0 0 0 30 21 0 0 0 0 0 0 0 0 0 0 25 22 0 0 0 0 0 0 0 0 29 
		90 0 0 0 0 0 0 0 0 0 0 0 0 37 31 0 0 0 37 0 0 0 0 0 0 0 0 0 0 0 0 0 0 0 0 31 0 0 0 0 0 0 0 0 0 0 0 0 0 0 0 0 0 0 40 0 0 0 0 0 0 0 0 0 0 0 0 0 0 0 0 0 0 0 0 0 0 0 0 0 0 0 0 0 0 0 0 0 0 0 0 0 0 0 0 0 0 0 
		91 0 29 0 0 0 0 0 0 0 0 30 0 0 30 0 0 0 0 35 0 0 23 0 24 0 0 0 0 40 0 0 33 0 0 0 23 28 0 27 0 0 0 0 0 0 0 0 0 0 0 0 0 0 0 0 0 0 0 0 0 0 0 0 0 40 0 0 25 0 0 0 0 0 26 0 0 0 0 0 0 0 0 0 0 0 0 0 0 0 0 0 0 33 0 0 0 0 
		92 0 0 23 0 0 0 0 0 0 0 0 0 0 0 0 20 0 0 24 0 0 0 0 0 0 0 0 0 0 0 0 0 33 0 0 30 0 37 0 0 0 0 0 0 0 0 31 0 0 0 0 0 0 0 30 0 0 0 0 0 0 0 0 0 0 0 0 0 0 21 0 0 20 0 0 36 0 0 0 0 0 0 0 0 0 0 0 0 0 0 0 33 0 0 0 0 22 
		93 0 0 0 0 0 0 0 0 21 0 0 27 0 0 0 0 0 0 0 0 0 0 0 0 28 34 0 0 0 0 0 37 0 0 23 0 0 0 0 0 20 0 0 35 0 0 0 0 0 28 0 0 33 0 0 0 0 0 29 0 0 20 0 0 0 0 0 0 39 0 0 0 0 0 0 0 0 0 0 0 0 0 25 0 0 0 32 0 30 0 0 0 0 0 34 0 0 
		94 0 0 0 0 0 34 0 0 21 0 0 0 0 0 0 0 0 0 0 0 0 0 0 0 0 0 0 0 0 0 0 0 0 0 0 40 0 0 0 0 28 0 0 0 0 0 0 0 0 26 0 24 35 39 0 0 0 0 0 0 0 22 0 0 0 0 32 0 0 31 0 0 0 0 0 26 0 0 0 0 0 0 0 0 0 0 0 0 0 0 0 0 0 34 0 20 0 
		95 0 0 0 0 0 21 0 0 0 0 0 0 0 0 0 0 0 0 32 31 0 0 0 37 0 0 0 0 0 0 0 0 0 0 0 0 24 0 0 0 0 0 0 0 0 0 0 0 0 0 0 0 0 0 26 0 0 0 0 0 0 0 0 0 0 24 0 0 0 29 0 0 0 0 0 0 0 0 20 0 0 0 0 0 0 0 35 0 0 0 0 0 0 0 20 0 20 
		96 0 0 40 0 0 0 0 0 0 0 0 0 0 28 0 0 0 0 0 20 0 0 0 0 0 30 0 35 0 0 0 0 0 0 0 0 0 0 0 0 0 0 0 0 0 0 0 0 37 0 0 0 0 0 0 21 0 0 0 0 0 0 38 0 27 0 0 0 0 0 0 0 0 33 0 0 21 0 0 20 0 0 0 0 0 0 0 0 0 29 0 0 22 0 0 20 0 
;
